Mo S 
 1.0000000000000000
     3.1811932612771621    0.0000000456299515    0.0000000000000000
     0.0000000818750131    5.7218622305371367    0.0000000000000000
     0.0000000000000000    0.0000000000000000   13.5407411999999994
 Mo  S  
   2   4
Cartesian
  0.7952901014268581  1.7769879732256491  6.8484402178973713
  2.3858866295421612  4.0474975704208092  6.6922355489910821
  2.3858868465661129  0.5024138454620706  5.4400621645416161
  0.7952901221270803  5.3220831979892003  8.1006150724061925
  2.3858867132256316  2.4418846933487068  8.5034015793883828
  0.7952899599804207  3.3826148872129509  5.0372739775856195
