Nb2 S4
1.0
   1.6843838213761044   -2.9174383580704331    0.0000000000000000
   1.6843838213761044    2.9174383580704331    0.0000000000000000
   0.0000000000000000    0.0000000000000000   12.6246655200000006
Nb S
2 4
direct
   0.0000000000000000    0.0000000000000000    0.7500000000000000 Nb4+
   0.0000000000000000    0.0000000000000000    0.2500000000000000 Nb4+
   0.3333333333333333    0.6666666666666666    0.3738114200000000 S2-
   0.6666666666666667    0.3333333333333333    0.8738114200000000 S2-
   0.3333333333333333    0.6666666666666667    0.1261885800000000 S2-
   0.6666666666666667    0.3333333333333334    0.6261885800000000 S2-
