Nb3S6
1.0
   2.91743835806852  -1.684383821375    0.00000000
   2.91743835806852   1.684383821375    0.00000000
   0.00000000000000   0.000000000000   18.93699828
Nb S
3 6
direct
   0.0000000000000000    0.0000000000000000    0.0000000000000000
   0.3333333333333333    0.3333333333333333    0.3333333333333333
   0.6666666666666666    0.6666666666666666    0.6666666666666666
   0.6666666666666666    0.6666666666666666    0.918
   0.6666666666666666    0.6666666666666666    0.082
   0.0000000000000000    0.0000000000000000    0.41533333333333333
   0.0000000000000000    0.0000000000000000    0.2513333333333333
   0.3333333333333333    0.3333333333333333    0.7486666666666666
   0.3333333333333333    0.3333333333333333    0.5846666666666667
