36
Properties=species:S:1:pos:R:3 pbc="F F F"
C       -1.23000000      -0.71014083       0.00000000
C       -0.00000000      -1.42028166       0.00000000
C        1.23000000      -0.71014083       0.00000000
C       -1.23000000       0.71014083       0.00000000
C        1.23000000       0.71014083       0.00000000
C       -0.00000000       1.42028166       0.00000000
C        0.00000000       2.84056332       0.00000000
C       -2.46000000      -1.42028166       0.00000000
C       -2.46000000       1.42028166       0.00000000
C        2.46000000      -1.42028166       0.00000000
C       -0.00000000      -2.84056332       0.00000000
C        2.46000000       1.42028166       0.00000000
C        2.46000000       2.84056332       0.00000000
C        3.69000000       0.71014083       0.00000000
C       -2.46000000       2.84056332       0.00000000
C       -3.69000000      -0.71014083       0.00000000
C       -2.46000000      -2.84056332       0.00000000
C       -3.69000000       0.71014083       0.00000000
C       -1.23000000      -3.55070416       0.00000000
C        1.23000000       3.55070416       0.00000000
C        1.23000000      -3.55070416       0.00000000
C       -1.23000000       3.55070416       0.00000000
C        2.46000000      -2.84056332       0.00000000
C        3.69000000      -0.71014083       0.00000000
H        3.40396769       3.38556332       0.00000000
H        4.63396769       1.25514083       0.00000000
H       -3.40396769       3.38556332       0.00000000
H       -4.63396769      -1.25514083       0.00000000
H       -3.40396769      -3.38556332       0.00000000
H       -4.63396769       1.25514083       0.00000000
H       -1.23000000      -4.64070416       0.00000000
H        1.23000000       4.64070416       0.00000000
H        1.23000000      -4.64070416       0.00000000
H       -1.23000000       4.64070416       0.00000000
H        3.40396769      -3.38556332       0.00000000
H        4.63396769      -1.25514083       0.00000000
