C 
 1.0000000000000000
     9.8399999999999999    0.0000000000000000    0.0000000000000000
    -4.9199999999999999    8.5216899732388764    0.0000000000000000
     0.0000000000000000   -0.0000000000000000   20.0000000000000000
 C  
  32
Direct
  0.0000000000000000  0.0000000000000000  0.5000000000000000
  0.1666666666666667  0.0833333333333333  0.5000000000000000
  0.0000000000000000  0.2500000000000000  0.5000000000000000
  0.1666666666666667  0.3333333333333333  0.5000000000000000
  0.0000000000000000  0.5000000000000000  0.5000000000000000
  0.1666666666666666  0.5833333333333333  0.5000000000000000
 -0.0000000000000000  0.7499999999999999  0.5000000000000000
  0.1666666666666666  0.8333333333333333  0.5000000000000000
  0.2500000000000000  0.0000000000000000  0.5000000000000000
  0.4166666666666666  0.0833333333333333  0.5000000000000000
  0.2500000000000000  0.2500000000000000  0.5000000000000000
  0.4166666666666666  0.3333333333333333  0.5000000000000000
  0.2500000000000000  0.5000000000000000  0.5000000000000000
  0.4166666666666666  0.5833333333333333  0.5000000000000000
  0.2499999999999999  0.7499999999999999  0.5000000000000000
  0.4166666666666666  0.8333333333333333  0.5000000000000000
  0.5000000000000000  0.0000000000000000  0.5000000000000000
  0.6666666666666667  0.0833333333333333  0.5000000000000000
  0.5000000000000000  0.2500000000000000  0.5000000000000000
  0.6666666666666666  0.3333333333333333  0.5000000000000000
  0.5000000000000000  0.5000000000000000  0.5000000000000000
  0.6666666666666666  0.5833333333333333  0.5000000000000000
  0.5000000000000000  0.7499999999999999  0.5000000000000000
  0.6666666666666666  0.8333333333333333  0.5000000000000000
  0.7500000000000000  0.0000000000000000  0.5000000000000000
  0.9166666666666666  0.0833333333333333  0.5000000000000000
  0.7500000000000001  0.2500000000000000  0.5000000000000000
  0.9166666666666667  0.3333333333333333  0.5000000000000000
  0.7500000000000000  0.5000000000000000  0.5000000000000000
  0.9166666666666666  0.5833333333333333  0.5000000000000000
  0.7499999999999999  0.7499999999999999  0.5000000000000000
  0.9166666666666666  0.8333333333333333  0.5000000000000000
