Mo S  Mo S  Mo S  Mo S  Mo S  Mo S  Mo S  Mo S  Mo S  Mo S  Mo S  Mo S  Mo S  Mo S  Mo S  Mo S 
 1.0000000000000000
    12.6400000000000006    0.0000000000000000    0.0000000000000000
    -6.3200000000000003   10.9465611038353039    0.0000000000000000
     0.0000000000000000   -0.0000000000000000   23.1900000000000013
 Mo  S   Mo  S   Mo  S   Mo  S   Mo  S   Mo  S   Mo  S   Mo  S   Mo  S   Mo  S   Mo  S   Mo  S   Mo  S   Mo  S   Mo  S   Mo  S  
   1   2   1   2   1   2   1   2   1   2   1   2   1   2   1   2   1   2   1   2   1   2   1   2   1   2   1   2   1   2   1   2
Direct
  0.0000000000000000  0.0000000000000000  0.5000000000000000
  0.1666666666666666  0.0833333333333333  0.5687796463993100
  0.1666666666666666  0.0833333333333333  0.4312203536006899
  0.0000000000000000  0.2500000000000000  0.5000000000000000
  0.1666666666666666  0.3333333333333333  0.5687796463993100
  0.1666666666666666  0.3333333333333333  0.4312203536006899
  0.0000000000000000  0.5000000000000000  0.5000000000000000
  0.1666666666666666  0.5833333333333333  0.5687796463993100
  0.1666666666666666  0.5833333333333333  0.4312203536006899
 -0.0000000000000001  0.7499999999999999  0.5000000000000000
  0.1666666666666666  0.8333333333333331  0.5687796463993100
  0.1666666666666666  0.8333333333333331  0.4312203536006899
  0.2500000000000000  0.0000000000000000  0.5000000000000000
  0.4166666666666666  0.0833333333333333  0.5687796463993100
  0.4166666666666666  0.0833333333333333  0.4312203536006899
  0.2500000000000000  0.2500000000000000  0.5000000000000000
  0.4166666666666666  0.3333333333333333  0.5687796463993100
  0.4166666666666666  0.3333333333333333  0.4312203536006899
  0.2500000000000000  0.5000000000000000  0.5000000000000000
  0.4166666666666666  0.5833333333333333  0.5687796463993100
  0.4166666666666666  0.5833333333333333  0.4312203536006899
  0.2499999999999999  0.7499999999999999  0.5000000000000000
  0.4166666666666665  0.8333333333333331  0.5687796463993100
  0.4166666666666665  0.8333333333333331  0.4312203536006899
  0.4999999999999999  0.0000000000000000  0.5000000000000000
  0.6666666666666666  0.0833333333333333  0.5687796463993100
  0.6666666666666666  0.0833333333333333  0.4312203536006899
  0.4999999999999999  0.2500000000000000  0.5000000000000000
  0.6666666666666665  0.3333333333333333  0.5687796463993100
  0.6666666666666665  0.3333333333333333  0.4312203536006899
  0.4999999999999999  0.5000000000000000  0.5000000000000000
  0.6666666666666665  0.5833333333333333  0.5687796463993100
  0.6666666666666665  0.5833333333333333  0.4312203536006899
  0.4999999999999999  0.7499999999999999  0.5000000000000000
  0.6666666666666665  0.8333333333333331  0.5687796463993100
  0.6666666666666665  0.8333333333333331  0.4312203536006899
  0.7500000000000000  0.0000000000000000  0.5000000000000000
  0.9166666666666666  0.0833333333333333  0.5687796463993100
  0.9166666666666666  0.0833333333333333  0.4312203536006899
  0.7500000000000000  0.2500000000000000  0.5000000000000000
  0.9166666666666665  0.3333333333333333  0.5687796463993100
  0.9166666666666665  0.3333333333333333  0.4312203536006899
  0.7500000000000000  0.5000000000000000  0.5000000000000000
  0.9166666666666665  0.5833333333333333  0.5687796463993100
  0.9166666666666665  0.5833333333333333  0.4312203536006899
  0.7500000000000000  0.7499999999999999  0.5000000000000000
  0.9166666666666665  0.8333333333333331  0.5687796463993100
  0.9166666666666665  0.8333333333333331  0.4312203536006899
