18
Properties=species:S:1:pos:R:3 pbc="F F F"
C       -0.61500000      -1.77535208       0.00000000
C       -1.84500000       0.35507042       0.00000000
C        0.61500000      -2.48549291       0.00000000
C        1.84500000      -1.77535208       0.00000000
C       -0.61500000      -0.35507042       0.00000000
C        0.61500000       0.35507042       0.00000000
C       -1.84500000       1.77535208       0.00000000
C       -0.61500000       2.48549291       0.00000000
C        1.84500000      -0.35507042       0.00000000
C        0.61500000       1.77535208       0.00000000
H       -1.55896769      -2.32035208       0.00000000
H       -2.78896769      -0.18992958       0.00000000
H        0.61500000      -3.57549291       0.00000000
H        2.78896769      -2.32035208       0.00000000
H       -2.78896769       2.32035208       0.00000000
H       -0.61500000       3.57549291       0.00000000
H        2.78896769       0.18992958       0.00000000
H        1.55896769       2.32035208       0.00000000
